0 4528
2401 4405
4802 4301
7203 4207
9604 4117
12005 4023
14406 3956
16807 3920
19208 3874
21609 3845
24010 3823
26411 3812
28812 3796
31213 3780
33614 3736
36015 3717
38416 3664
40817 3623
43218 3617
45619 3604
48020 3588
50421 3579
52822 3574
55223 3547
57624 3535
69629 3534
79233 3533
81634 3530
84035 3525
86436 3523
88837 3522
91238 3519
93639 3518
96040 3510
108045 3496
110446 3495
112847 3491
117649 3489
120050 3483
